/*********************************************
 * OPL 12.5 Data
 * Author: ime
 * Creation Date: 25-Jan-2023 at 1:13:21 PM
 *********************************************/
Products=  { "Pant", "Shirt", "Jacket"};
Resources= { "Cotton", "Wool"};
P=3;
Capacity= [ 20, 40 ];
Product = #[
Pant : < [10,100,50],0.1, 0.4, 0.8 ,[ 0.5, 0.2 ] >,
Shirt : < [20,200,100], 0.2,0.6, 0.9,[ 0.4, 0.4 ] >,
Jacket : < [50,100,100], 0.1, 0.1, 0.4 ,[ 0.3, 0.6 ] >
]#;